100 10
250 848
891 99
381 223
434 136
760 136
146 195
220 530
516 792
262 869
681 313
648 587
221 240
190 817
231 843
476 576
180 388
787 206
539 899
147 611
476 863
224 875
407 620
420 586
189 401
378 617
446 662
291 391
516 506
257 625
297 574
508 182
365 703
100 499
406 406
384 582
135 562
571 243
452 875
142 305
304 580
233 693
160 471
492 946
399 449
403 808
685 278
513 220
88 42
454 555
338 847
309 407
259 911
407 760
342 626
697 445
198 473
10 388
276 404
337 717
556 387
253 363
388 586
515 387
253 750
921 296
189 268
531 815
331 578
535 500
778 237
229 626
400 688
416 768
376 311
390 712
514 341
546 550
514 953
850 36
458 396
493 798
375 601
172 773
147 545
139 645
337 225
659 164
495 539
43 574
607 376
213 335
107 797
834 433
220 607
537 359
118 615
359 222
474 274
411 538
823 254
